200
1000
209
208
207
207
207
207
206
204
203
202
201
201
201
199
199
199
197
196
196
195
194
194
193
192
192
192
191
191
191
189
189
187
187
186
186
185
184
183
182
182
182
182
181
179
178
177
177
177
176
176
175
174
174
174
174
172
170
170
169
169
168
168
167
167
167
166
166
165
165
164
164
164
163
163
163
162
162
162
161
161
161
160
159
158
157
156
156
156
156
155
154
153
152
150
149
149
148
146
146
146
146
145
144
144
143
143
142
142
142
141
141
139
139
137
136
136
135
135
135
133
133
132
132
132
131
129
127
127
125
125
124
124
123
122
122
122
121
120
118
118
118
115
114
114
113
111
110
109
106
106
104
102
102
102
102
101
101
100
99
98
97
96
96
95
95
95
95
94
94
93
92
92
90
90
88
88
88
87
85
83
83
82
82
82
81
79
79
77
77
77
76
75
75
75
74
74
74
72
72
72
